c FILE /home/rafael/Documents/HappySet/MIHS/inputs/happygen/output/graph_d_regular_k2_p0.1_v100_20241127_083953.txt
c SOURCE This is a d-regular graph formed for the happy graph colouring problem.
c DESCRIPTION It was generated using the problem generator of Rhyd Lewis
c
c GRAPH STATS
c Seed                             = 769810711
c Number of Nodes                  = 100
c Number of colours k              = 2
c Number of pre-assignments        = 10
c Degree of all vertices           = 6
c Density                          = 0.0606061
c 
c The degrees of nodes 1 to 100, respectively, are as follows 
c [6, 6, 6, 6, 6, 6, 6, 6, 6, 6, 6, 6, 6, 6, 6, 6, 6, 6, 6, 6, 6, 6, 6, 6, 6, 6, 
c  6, 6, 6, 6, 6, 6, 6, 6, 6, 6, 6, 6, 6, 6, 6, 6, 6, 6, 6, 6, 6, 6, 6, 6, 6, 
c  6, 6, 6, 6, 6, 6, 6, 6, 6, 6, 6, 6, 6, 6, 6, 6, 6, 6, 6, 6, 6, 6, 6, 6, 6, 
c  6, 6, 6, 6, 6, 6, 6, 6, 6, 6, 6, 6, 6, 6, 6, 6, 6, 6, 6, 6, 6, 6, 6, 6] 
c  
p edge 100 300 2
e 1 4
e 1 27
e 1 56
e 1 68
e 1 74
e 1 86
e 2 20
e 2 33
e 2 35
e 2 75
e 2 77
e 2 79
e 3 26
e 3 27
e 3 33
e 3 49
e 3 70
e 3 92
e 4 28
e 4 29
e 4 84
e 4 88
e 4 98
e 5 42
e 5 44
e 5 65
e 5 69
e 5 82
e 5 99
e 6 38
e 6 51
e 6 56
e 6 70
e 6 71
e 6 83
e 7 20
e 7 25
e 7 37
e 7 66
e 7 67
e 7 88
e 8 29
e 8 36
e 8 47
e 8 50
e 8 53
e 8 96
e 9 11
e 9 18
e 9 65
e 9 88
e 9 97
e 9 100
e 10 16
e 10 17
e 10 21
e 10 56
e 10 70
e 10 92
e 11 24
e 11 42
e 11 48
e 11 57
e 11 77
e 12 25
e 12 32
e 12 48
e 12 51
e 12 53
e 12 87
e 13 39
e 13 43
e 13 53
e 13 58
e 13 98
e 13 100
e 14 15
e 14 22
e 14 23
e 14 37
e 14 75
e 14 88
e 15 44
e 15 57
e 15 71
e 15 90
e 15 99
e 16 40
e 16 45
e 16 62
e 16 63
e 16 84
e 17 48
e 17 59
e 17 76
e 17 88
e 17 94
e 18 20
e 18 24
e 18 41
e 18 58
e 18 86
e 19 22
e 19 34
e 19 41
e 19 46
e 19 53
e 19 54
e 20 38
e 20 52
e 20 93
e 21 42
e 21 46
e 21 51
e 21 89
e 21 93
e 22 66
e 22 81
e 22 94
e 22 98
e 23 27
e 23 28
e 23 44
e 23 66
e 23 97
e 24 30
e 24 46
e 24 55
e 24 62
e 25 33
e 25 36
e 25 53
e 25 92
e 26 34
e 26 61
e 26 76
e 26 80
e 26 85
e 27 28
e 27 80
e 27 83
e 28 39
e 28 89
e 28 94
e 29 37
e 29 66
e 29 69
e 29 96
e 30 42
e 30 47
e 30 59
e 30 91
e 30 97
e 31 74
e 31 76
e 31 77
e 31 81
e 31 93
e 31 96
e 32 34
e 32 39
e 32 73
e 32 86
e 32 88
e 33 54
e 33 67
e 33 100
e 34 61
e 34 78
e 34 86
e 35 37
e 35 43
e 35 59
e 35 67
e 35 78
e 36 64
e 36 66
e 36 80
e 36 83
e 37 56
e 37 98
e 38 77
e 38 87
e 38 89
e 38 90
e 39 49
e 39 87
e 39 95
e 40 54
e 40 55
e 40 60
e 40 68
e 40 82
e 41 46
e 41 58
e 41 60
e 41 87
e 42 72
e 42 99
e 43 55
e 43 56
e 43 79
e 43 96
e 44 46
e 44 64
e 44 97
e 45 55
e 45 68
e 45 71
e 45 85
e 45 93
e 46 71
e 47 56
e 47 62
e 47 65
e 47 71
e 48 71
e 48 78
e 48 95
e 49 58
e 49 61
e 49 86
e 49 98
e 50 60
e 50 63
e 50 75
e 50 84
e 50 96
e 51 64
e 51 67
e 51 76
e 52 54
e 52 68
e 52 69
e 52 91
e 52 92
e 53 65
e 54 82
e 54 87
e 55 64
e 55 72
e 57 77
e 57 79
e 57 86
e 57 95
e 58 59
e 58 99
e 59 69
e 59 80
e 60 84
e 60 85
e 60 95
e 61 74
e 61 79
e 61 95
e 62 64
e 62 80
e 62 83
e 63 67
e 63 79
e 63 84
e 63 91
e 64 97
e 65 99
e 65 100
e 66 90
e 67 87
e 68 76
e 68 85
e 69 74
e 69 83
e 70 72
e 70 84
e 70 90
e 72 73
e 72 85
e 72 94
e 73 81
e 73 89
e 73 94
e 73 96
e 74 95
e 74 100
e 75 76
e 75 98
e 75 99
e 77 79
e 78 82
e 78 83
e 78 89
e 80 90
e 81 82
e 81 85
e 81 91
e 82 93
e 89 92
e 90 91
e 91 97
e 92 94
e 93 100
n 8 1
n 16 2
n 17 2
n 19 2
n 24 1
n 42 1
n 59 2
n 70 1
n 71 2
n 92 1
